StudentsNr = 10;
InstructorsNr = 84;
DaysNr = 1;
SlotsPerDay = 20;
AvailabilitySlotsLenght = 10;
RoomNr = 1;
ProgrammNr = 2;
DegreeNr = 3;
RolesNr = 4;
CoursesNr = 8;
InstructorsProgramm = [{2}, {1, 2}, {2}, {2}, {2}, {2}, {1}, {2}, {1}, {2}, {2}, {1, 2}, {1}, {2}, {1, 2}, {1}, {2}, {1}, {2}, {1}, {1}, {2}, {1, 2}, {1, 2}, {1, 2}, {2}, {1, 2}, {1}, {2}, {2}, {2}, {2}, {2}, {1, 2}, {1}, {1, 2}, {2}, {2}, {2}, {1}, {2}, {1}, {2}, {2}, {1}, {1}, {1, 2}, {1}, {1, 2}, {1}, {2}, {2}, {1, 2}, {1}, {1}, {1}, {2}, {1}, {1, 2}, {2}, {1, 2}, {1}, {1, 2}, {2}, {1}, {1, 2}, {1, 2}, {2}, {1}, {1}, {2}, {1, 2}, {1}, {1, 2}, {1}, {2}, {2}, {1}, {1}, {1}, {1}, {1}, {1, 2}, {1}];
InstructorRolesPerProgramm = [|{7, 13, 15, 16, 20, 24, 35, 36, 46, 50, 58, 63, 74, 75, 78, 79, 81, 82}, {2, 7, 15, 16, 18, 20, 21, 25, 27, 28, 35, 40, 42, 47, 50, 54, 58, 59, 61, 62, 63, 69, 79, 80, 83, 84}, {7, 9, 12, 13, 15, 18, 23, 25, 27, 28, 42, 46, 48, 54, 58, 59, 63, 65, 66, 73, 79, 80, 82, 83}, {7, 15, 18, 20, 21, 28, 35, 36, 49, 50, 54, 59, 65, 73, 78, 79, 80, 84}|{4, 5, 6, 8, 10, 15, 24, 26, 29, 33, 36, 37, 38, 44, 51, 60, 63, 71, 74, 76}, {2, 3, 4, 5, 6, 14, 15, 25, 27, 29, 37, 38, 39, 41, 43, 47, 51, 57, 59, 61, 63, 64, 71, 76, 77, 83}, {1, 3, 6, 10, 12, 14, 15, 23, 25, 26, 27, 29, 31, 32, 33, 59, 63, 64, 66, 83}, {3, 5, 10, 14, 15, 17, 19, 22, 30, 36, 37, 41, 44, 49, 51, 57, 59, 64, 76, 77}|];
InstructorsAvailability = [|0, 0, |0, 0, |0, 1, |0, 0, |0, 1, |1, 1, |0, 1, |1, 0, |0, 1, |0, 0, |1, 1, |0, 1, |1, 1, |1, 0, |0, 1, |1, 0, |0, 1, |0, 0, |1, 1, |0, 1, |1, 1, |1, 1, |1, 1, |0, 0, |1, 1, |0, 1, |1, 1, |1, 1, |0, 1, |0, 1, |1, 1, |0, 1, |0, 0, |0, 1, |0, 0, |0, 1, |0, 0, |1, 1, |0, 1, |1, 1, |0, 1, |1, 1, |1, 1, |0, 1, |1, 1, |0, 1, |1, 1, |1, 1, |0, 0, |0, 1, |0, 0, |0, 1, |1, 0, |0, 1, |0, 1, |0, 0, |0, 1, |1, 1, |1, 0, |1, 1, |1, 1, |0, 1, |1, 1, |0, 0, |1, 1, |0, 1, |1, 1, |0, 0, |1, 1, |0, 1, |0, 1, |1, 0, |0, 1, |0, 0, |1, 0, |0, 1, |0, 1, |0, 1, |0, 0, |0, 1, |1, 1, |1, 1, |0, 1, |1, 1|];
StudentsProgramm = [2, 2, 2, 1, 2, 2, 1, 1, 1, 2];
StudentsDegree = [2, 1, 3, 3, 2, 2, 3, 1, 3, 1];
StudentsSupervisorId = [74, 37, 2, 49, 39, 47, 70, 55, 48, 38];
StudentsCourseIds = [{2, 3, 7}, {5}, {1, 2, 8}, {1, 2, 8}, {1, 7, 8}, {4, 6, 7}, {1, 4, 8}, {4}, {1, 4, 7}, {1}];
StudentsAvailability = [|1, 0, |1, 1, |1, 1, |1, 1, |1, 1, |1, 1, |1, 1, |0, 1, |1, 1, |1, 1|];
TheoryticalMinCard = [0, 0, 0, 1, 0, 0, 0, 0, 0, 0];
CoursesInstructorIds = [{1, 2, 4, 6, 7, 8, 9, 12, 15, 21, 22, 23, 25, 26, 27, 29, 30, 31, 32, 33, 35, 37, 38, 39, 42, 46, 48, 49, 50, 55, 56, 58, 60, 61, 62, 63, 66, 70, 71, 73, 74, 75, 77, 78, 79, 80, 82, 83}, {29, 72}, {2, 4, 8, 13, 14, 22, 23, 33, 35, 36, 41, 43, 44, 45, 46, 51, 52, 68, 71, 73, 74, 75}, {1, 4, 6, 7, 9, 10, 12, 13, 15, 18, 21, 23, 24, 26, 27, 29, 32, 34, 35, 36, 37, 41, 43, 45, 46, 47, 51, 52, 54, 55, 59, 63, 67, 68, 69, 70, 71, 72, 74, 75, 76, 77, 78, 80, 83, 84}, {2, 3, 5, 6, 14, 26, 28, 29, 30, 37, 38, 41, 48, 51, 62}, {1, 2, 3, 6, 7, 9, 10, 11, 12, 13, 14, 15, 16, 17, 18, 21, 22, 24, 26, 27, 28, 29, 31, 33, 35, 36, 37, 39, 41, 42, 44, 45, 46, 47, 49, 50, 51, 52, 53, 54, 56, 57, 60, 64, 65, 67, 69, 71, 75, 76, 77, 82, 83, 84}, {5, 6, 16, 21, 23, 25, 27, 31, 32, 36, 54, 59, 65, 66, 67, 68, 70, 74, 76, 77, 80}, {54, 66, 72}];
RolesDemands = [11, 19, 19, 1];
RolesContinuity = [1, 3, 4];
ExamLen = [1, 1, 1, 1, 1, 1, 1, 1, 1, 1];
LunchTsMinLen = 0;
LunchStarts = [9..12];
SupervisorAvailable = 5;
OptimalLunchLenght = [3, 0];
OptimalStartTs = [1, 0];
OptimalFinishTs = [2, 20];
MinimizeRooms = 300;
RolesSoftContinuity = [|1, 2, 3, 4|0, 0, 1, 0|];
SameDegreeInRoom = 0;
Mergeability = 0;
